c A SAT instance generated from a 3-CNF formula that had 40 clauses and 10 variables
p cnf 10 40
-2 -7 4 0
6 -4 1 0
4 5 2 0
-8 -3 -9 0
5 7 10 0
-3 -6 -8 0
1 -9 6 0
9 2 3 0
-4 -8 -5 0
-7 -9 8 0
-4 -7 -2 0
10 7 -1 0
1 9 2 0
5 8 9 0
1 2 -5 0
5 -1 9 0
3 -5 -6 0
4 5 6 0
-9 -5 -10 0
-3 -7 8 0
7 10 -8 0
-8 -3 9 0
7 -3 2 0
3 -1 -5 0
5 3 -1 0
-8 5 1 0
2 3 1 0
-6 1 5 0
-10 -3 -5 0
9 -8 -5 0
6 -3 5 0
5 6 -7 0
5 -6 -1 0
4 3 6 0
-2 4 10 0
7 4 3 0
5 8 4 0
-10 -9 -2 0
-1 4 -2 0
-7 -9 5 0
